NAME : XML100_3366_01
DIMENSION : 101
NB_CLUSTERS : 5
CLUSTERING_ALG : KMedoids
CLUSTERING_PARAMS : k(4)
CLUSTERS
1 0
2 4 6 7 10 12 22 23 27 29 30 31 32 34 45 46 58 63 70 76 80 85 89 100
3 1 2 11 19 21 35 39 41 47 49 51 52 53 55 59 62 64 68 69 71 73 82 83
4 3 5 16 17 20 36 38 40 42 44 50 54 56 67 78 81 87 88 92 93 95 96
5 8 9 13 14 15 18 24 25 26 28 33 37 43 48 57 60 61 65 66 72 74 75 77 79 84 86 90 91 94 97 98 99
EOF